container_length = 52;
container_width = 36;
container_height = 19;
n = 8;
boxes = [|4, 3, 2, 34
         |4, 2, 2, 37
         |3, 2, 1, 23
         |5, 4, 2, 27
         |15,2, 2, 25
         |6, 4, 3, 23
         |9, 2, 2, 14
         |7, 3, 3, 17|];
